c " random instance " 
p edges 200 4120
e 1 17
e 1 21
e 1 26
e 1 32
e 1 33
e 1 34
e 1 36
e 1 38
e 1 41
e 1 55
e 1 59
e 1 60
e 1 69
e 1 78
e 1 84
e 1 89
e 1 93
e 1 108
e 1 109
e 1 110
e 1 111
e 1 114
e 1 116
e 1 117
e 1 118
e 1 120
e 1 121
e 1 123
e 1 125
e 1 132
e 1 137
e 1 140
e 1 141
e 1 149
e 1 152
e 1 158
e 1 163
e 1 169
e 1 171
e 1 173
e 1 177
e 1 183
e 1 185
e 1 188
e 1 190
e 1 192
e 2 3
e 2 17
e 2 38
e 2 46
e 2 56
e 2 57
e 2 68
e 2 74
e 2 76
e 2 80
e 2 81
e 2 88
e 2 95
e 2 99
e 2 113
e 2 114
e 2 115
e 2 126
e 2 129
e 2 140
e 2 141
e 2 152
e 2 153
e 2 154
e 2 156
e 2 160
e 2 164
e 2 167
e 2 168
e 2 169
e 2 172
e 2 182
e 2 186
e 2 194
e 2 196
e 2 197
e 2 199
e 3 24
e 3 28
e 3 37
e 3 38
e 3 39
e 3 49
e 3 61
e 3 68
e 3 69
e 3 73
e 3 77
e 3 85
e 3 100
e 3 101
e 3 105
e 3 115
e 3 120
e 3 121
e 3 122
e 3 125
e 3 130
e 3 140
e 3 142
e 3 149
e 3 153
e 3 156
e 3 161
e 3 167
e 3 169
e 3 178
e 3 181
e 3 184
e 3 185
e 3 188
e 3 193
e 3 194
e 3 196
e 4 7
e 4 17
e 4 31
e 4 36
e 4 38
e 4 53
e 4 58
e 4 70
e 4 73
e 4 84
e 4 86
e 4 89
e 4 98
e 4 107
e 4 109
e 4 110
e 4 117
e 4 120
e 4 121
e 4 128
e 4 134
e 4 136
e 4 144
e 4 146
e 4 147
e 4 154
e 4 155
e 4 159
e 4 164
e 4 169
e 4 170
e 4 171
e 4 178
e 4 179
e 4 180
e 4 181
e 4 187
e 4 188
e 4 190
e 5 6
e 5 9
e 5 13
e 5 14
e 5 15
e 5 26
e 5 28
e 5 35
e 5 45
e 5 46
e 5 54
e 5 55
e 5 62
e 5 63
e 5 72
e 5 73
e 5 85
e 5 87
e 5 89
e 5 100
e 5 103
e 5 112
e 5 117
e 5 119
e 5 124
e 5 130
e 5 132
e 5 135
e 5 137
e 5 139
e 5 144
e 5 147
e 5 151
e 5 161
e 5 169
e 5 170
e 5 172
e 5 177
e 5 179
e 5 183
e 5 184
e 5 187
e 5 191
e 5 193
e 6 17
e 6 26
e 6 32
e 6 39
e 6 43
e 6 47
e 6 51
e 6 62
e 6 65
e 6 67
e 6 69
e 6 72
e 6 83
e 6 84
e 6 90
e 6 96
e 6 106
e 6 117
e 6 123
e 6 127
e 6 136
e 6 142
e 6 143
e 6 146
e 6 163
e 6 167
e 6 169
e 6 180
e 6 183
e 6 187
e 6 188
e 6 192
e 7 13
e 7 17
e 7 24
e 7 27
e 7 29
e 7 31
e 7 34
e 7 35
e 7 41
e 7 47
e 7 57
e 7 61
e 7 66
e 7 72
e 7 77
e 7 80
e 7 81
e 7 88
e 7 92
e 7 93
e 7 94
e 7 96
e 7 99
e 7 100
e 7 103
e 7 105
e 7 114
e 7 117
e 7 122
e 7 124
e 7 127
e 7 130
e 7 136
e 7 137
e 7 140
e 7 141
e 7 152
e 7 155
e 7 162
e 7 172
e 7 181
e 7 184
e 7 193
e 7 195
e 7 199
e 8 14
e 8 15
e 8 16
e 8 18
e 8 19
e 8 25
e 8 33
e 8 38
e 8 39
e 8 40
e 8 49
e 8 57
e 8 62
e 8 63
e 8 75
e 8 76
e 8 82
e 8 83
e 8 85
e 8 86
e 8 90
e 8 92
e 8 110
e 8 113
e 8 122
e 8 127
e 8 133
e 8 140
e 8 150
e 8 153
e 8 160
e 8 166
e 8 169
e 8 177
e 8 178
e 8 179
e 8 182
e 8 195
e 8 196
e 8 199
e 8 200
e 9 14
e 9 19
e 9 34
e 9 38
e 9 43
e 9 47
e 9 54
e 9 57
e 9 65
e 9 66
e 9 79
e 9 82
e 9 90
e 9 93
e 9 118
e 9 124
e 9 125
e 9 129
e 9 131
e 9 141
e 9 146
e 9 154
e 9 157
e 9 158
e 9 159
e 9 167
e 9 171
e 9 179
e 9 181
e 9 190
e 9 191
e 9 196
e 9 199
e 10 18
e 10 23
e 10 26
e 10 32
e 10 42
e 10 43
e 10 70
e 10 72
e 10 75
e 10 85
e 10 86
e 10 98
e 10 99
e 10 100
e 10 101
e 10 103
e 10 104
e 10 109
e 10 112
e 10 114
e 10 130
e 10 132
e 10 148
e 10 152
e 10 154
e 10 156
e 10 157
e 10 165
e 10 167
e 10 169
e 10 175
e 10 189
e 10 194
e 11 12
e 11 13
e 11 15
e 11 18
e 11 23
e 11 29
e 11 30
e 11 33
e 11 41
e 11 43
e 11 54
e 11 63
e 11 76
e 11 77
e 11 79
e 11 83
e 11 85
e 11 88
e 11 90
e 11 95
e 11 105
e 11 107
e 11 109
e 11 110
e 11 114
e 11 115
e 11 118
e 11 120
e 11 121
e 11 126
e 11 136
e 11 142
e 11 143
e 11 148
e 11 152
e 11 154
e 11 160
e 11 163
e 11 172
e 11 176
e 11 180
e 11 181
e 11 182
e 11 191
e 11 192
e 11 200
e 12 18
e 12 22
e 12 26
e 12 42
e 12 52
e 12 61
e 12 76
e 12 79
e 12 86
e 12 95
e 12 105
e 12 112
e 12 121
e 12 124
e 12 127
e 12 138
e 12 139
e 12 141
e 12 155
e 12 169
e 12 173
e 12 174
e 12 177
e 12 182
e 12 184
e 12 194
e 12 196
e 13 15
e 13 30
e 13 34
e 13 45
e 13 47
e 13 48
e 13 50
e 13 64
e 13 65
e 13 66
e 13 71
e 13 88
e 13 92
e 13 97
e 13 99
e 13 102
e 13 103
e 13 111
e 13 114
e 13 116
e 13 117
e 13 118
e 13 122
e 13 124
e 13 129
e 13 132
e 13 138
e 13 140
e 13 148
e 13 155
e 13 156
e 13 158
e 13 174
e 13 178
e 13 179
e 13 184
e 13 185
e 13 193
e 13 195
e 14 25
e 14 28
e 14 29
e 14 30
e 14 31
e 14 35
e 14 38
e 14 43
e 14 57
e 14 69
e 14 70
e 14 81
e 14 85
e 14 87
e 14 90
e 14 92
e 14 97
e 14 102
e 14 105
e 14 108
e 14 116
e 14 128
e 14 139
e 14 153
e 14 157
e 14 159
e 14 160
e 14 161
e 14 162
e 14 164
e 14 165
e 14 183
e 14 194
e 14 196
e 15 30
e 15 34
e 15 44
e 15 45
e 15 47
e 15 49
e 15 50
e 15 55
e 15 56
e 15 61
e 15 78
e 15 81
e 15 83
e 15 86
e 15 97
e 15 108
e 15 110
e 15 118
e 15 120
e 15 124
e 15 128
e 15 133
e 15 139
e 15 147
e 15 153
e 15 156
e 15 161
e 15 172
e 15 178
e 15 186
e 15 191
e 15 192
e 15 194
e 16 20
e 16 29
e 16 35
e 16 39
e 16 49
e 16 58
e 16 62
e 16 70
e 16 73
e 16 75
e 16 76
e 16 80
e 16 83
e 16 93
e 16 100
e 16 103
e 16 105
e 16 112
e 16 114
e 16 116
e 16 118
e 16 123
e 16 125
e 16 128
e 16 132
e 16 133
e 16 134
e 16 140
e 16 141
e 16 148
e 16 157
e 16 162
e 16 172
e 16 178
e 16 181
e 16 186
e 16 200
e 17 22
e 17 24
e 17 26
e 17 41
e 17 50
e 17 51
e 17 55
e 17 57
e 17 78
e 17 91
e 17 92
e 17 95
e 17 97
e 17 101
e 17 103
e 17 104
e 17 120
e 17 121
e 17 129
e 17 135
e 17 145
e 17 147
e 17 148
e 17 149
e 17 150
e 17 174
e 17 180
e 17 184
e 17 185
e 18 25
e 18 26
e 18 27
e 18 28
e 18 29
e 18 31
e 18 33
e 18 37
e 18 40
e 18 44
e 18 51
e 18 60
e 18 63
e 18 64
e 18 70
e 18 73
e 18 77
e 18 98
e 18 99
e 18 105
e 18 110
e 18 111
e 18 125
e 18 126
e 18 135
e 18 147
e 18 150
e 18 156
e 18 157
e 18 158
e 18 165
e 18 169
e 18 172
e 18 173
e 18 179
e 18 180
e 18 182
e 18 183
e 18 195
e 18 196
e 18 198
e 19 21
e 19 31
e 19 34
e 19 35
e 19 36
e 19 41
e 19 53
e 19 54
e 19 59
e 19 62
e 19 67
e 19 69
e 19 71
e 19 78
e 19 80
e 19 84
e 19 86
e 19 90
e 19 102
e 19 104
e 19 105
e 19 107
e 19 111
e 19 115
e 19 117
e 19 118
e 19 120
e 19 122
e 19 124
e 19 125
e 19 133
e 19 136
e 19 137
e 19 144
e 19 153
e 19 157
e 19 159
e 19 162
e 19 163
e 19 164
e 19 165
e 19 167
e 19 170
e 19 172
e 19 175
e 19 177
e 19 182
e 19 183
e 19 184
e 19 186
e 19 190
e 19 191
e 19 199
e 20 39
e 20 45
e 20 49
e 20 54
e 20 58
e 20 59
e 20 61
e 20 68
e 20 76
e 20 84
e 20 97
e 20 99
e 20 100
e 20 106
e 20 112
e 20 123
e 20 126
e 20 131
e 20 143
e 20 145
e 20 146
e 20 149
e 20 158
e 20 160
e 20 165
e 20 170
e 20 173
e 20 175
e 20 179
e 20 182
e 20 184
e 20 196
e 20 198
e 21 22
e 21 24
e 21 34
e 21 39
e 21 40
e 21 42
e 21 45
e 21 50
e 21 51
e 21 53
e 21 66
e 21 67
e 21 72
e 21 75
e 21 82
e 21 98
e 21 102
e 21 104
e 21 105
e 21 108
e 21 109
e 21 112
e 21 115
e 21 122
e 21 129
e 21 138
e 21 145
e 21 153
e 21 158
e 21 162
e 21 163
e 21 164
e 21 169
e 21 177
e 21 179
e 21 182
e 21 184
e 21 186
e 21 188
e 21 192
e 21 198
e 21 200
e 22 25
e 22 27
e 22 32
e 22 33
e 22 40
e 22 46
e 22 52
e 22 62
e 22 63
e 22 67
e 22 71
e 22 79
e 22 90
e 22 93
e 22 99
e 22 101
e 22 106
e 22 109
e 22 117
e 22 119
e 22 132
e 22 140
e 22 151
e 22 155
e 22 161
e 22 164
e 22 173
e 22 179
e 22 180
e 22 186
e 22 192
e 22 193
e 22 198
e 23 25
e 23 29
e 23 37
e 23 38
e 23 39
e 23 40
e 23 42
e 23 55
e 23 56
e 23 63
e 23 72
e 23 81
e 23 94
e 23 99
e 23 102
e 23 112
e 23 119
e 23 120
e 23 128
e 23 134
e 23 139
e 23 140
e 23 141
e 23 142
e 23 154
e 23 161
e 23 162
e 23 173
e 23 175
e 23 178
e 23 182
e 23 183
e 23 186
e 23 194
e 23 199
e 23 200
e 24 26
e 24 30
e 24 37
e 24 43
e 24 47
e 24 50
e 24 54
e 24 58
e 24 60
e 24 82
e 24 88
e 24 91
e 24 95
e 24 104
e 24 126
e 24 127
e 24 129
e 24 135
e 24 136
e 24 143
e 24 151
e 24 160
e 24 162
e 24 168
e 24 172
e 24 176
e 24 178
e 24 179
e 24 182
e 24 188
e 24 191
e 24 193
e 24 194
e 24 197
e 25 26
e 25 28
e 25 34
e 25 43
e 25 50
e 25 62
e 25 63
e 25 68
e 25 74
e 25 79
e 25 80
e 25 82
e 25 88
e 25 89
e 25 93
e 25 97
e 25 99
e 25 100
e 25 102
e 25 109
e 25 119
e 25 125
e 25 126
e 25 128
e 25 130
e 25 133
e 25 139
e 25 142
e 25 143
e 25 152
e 25 154
e 25 157
e 25 162
e 25 165
e 25 171
e 25 173
e 25 176
e 25 182
e 25 189
e 25 192
e 25 198
e 26 42
e 26 45
e 26 48
e 26 50
e 26 51
e 26 60
e 26 69
e 26 71
e 26 72
e 26 73
e 26 74
e 26 75
e 26 79
e 26 87
e 26 88
e 26 93
e 26 104
e 26 115
e 26 116
e 26 117
e 26 122
e 26 135
e 26 137
e 26 145
e 26 147
e 26 149
e 26 153
e 26 161
e 26 162
e 26 164
e 26 172
e 26 179
e 26 186
e 26 187
e 26 191
e 26 197
e 27 28
e 27 32
e 27 33
e 27 36
e 27 37
e 27 42
e 27 49
e 27 53
e 27 64
e 27 68
e 27 75
e 27 80
e 27 86
e 27 96
e 27 98
e 27 103
e 27 104
e 27 107
e 27 109
e 27 110
e 27 111
e 27 113
e 27 114
e 27 119
e 27 122
e 27 130
e 27 134
e 27 143
e 27 144
e 27 146
e 27 148
e 27 149
e 27 169
e 27 170
e 27 176
e 27 181
e 27 182
e 27 184
e 27 186
e 27 190
e 27 191
e 27 193
e 27 198
e 28 29
e 28 38
e 28 40
e 28 44
e 28 55
e 28 56
e 28 58
e 28 62
e 28 69
e 28 70
e 28 75
e 28 86
e 28 92
e 28 95
e 28 96
e 28 98
e 28 99
e 28 102
e 28 105
e 28 109
e 28 114
e 28 116
e 28 118
e 28 121
e 28 123
e 28 124
e 28 136
e 28 137
e 28 139
e 28 145
e 28 150
e 28 157
e 28 159
e 28 161
e 28 162
e 28 172
e 28 182
e 28 183
e 28 189
e 28 190
e 28 199
e 29 33
e 29 38
e 29 43
e 29 52
e 29 56
e 29 58
e 29 61
e 29 63
e 29 65
e 29 75
e 29 76
e 29 79
e 29 85
e 29 87
e 29 99
e 29 101
e 29 106
e 29 116
e 29 117
e 29 120
e 29 133
e 29 136
e 29 137
e 29 146
e 29 155
e 29 172
e 29 173
e 29 189
e 29 191
e 29 192
e 29 198
e 30 44
e 30 47
e 30 51
e 30 70
e 30 72
e 30 85
e 30 86
e 30 88
e 30 93
e 30 97
e 30 103
e 30 105
e 30 106
e 30 110
e 30 111
e 30 113
e 30 119
e 30 123
e 30 126
e 30 127
e 30 130
e 30 136
e 30 145
e 30 152
e 30 158
e 30 166
e 30 173
e 30 174
e 30 175
e 30 177
e 30 185
e 30 193
e 31 38
e 31 40
e 31 41
e 31 44
e 31 52
e 31 53
e 31 54
e 31 58
e 31 59
e 31 69
e 31 73
e 31 80
e 31 83
e 31 96
e 31 102
e 31 108
e 31 111
e 31 123
e 31 126
e 31 134
e 31 141
e 31 145
e 31 146
e 31 152
e 31 155
e 31 161
e 31 163
e 31 164
e 31 165
e 31 168
e 31 174
e 31 180
e 31 184
e 31 185
e 31 194
e 31 198
e 32 33
e 32 37
e 32 50
e 32 54
e 32 56
e 32 65
e 32 66
e 32 71
e 32 77
e 32 82
e 32 91
e 32 99
e 32 108
e 32 111
e 32 117
e 32 124
e 32 137
e 32 139
e 32 157
e 32 158
e 32 162
e 32 164
e 32 169
e 32 171
e 32 173
e 32 174
e 32 184
e 32 186
e 32 191
e 32 192
e 32 197
e 33 40
e 33 47
e 33 49
e 33 51
e 33 61
e 33 63
e 33 64
e 33 66
e 33 69
e 33 74
e 33 76
e 33 82
e 33 102
e 33 105
e 33 118
e 33 123
e 33 133
e 33 134
e 33 135
e 33 144
e 33 148
e 33 157
e 33 158
e 33 159
e 33 161
e 33 164
e 33 175
e 33 176
e 33 179
e 33 187
e 33 190
e 33 192
e 34 35
e 34 40
e 34 41
e 34 46
e 34 53
e 34 54
e 34 55
e 34 58
e 34 62
e 34 72
e 34 73
e 34 75
e 34 78
e 34 84
e 34 99
e 34 103
e 34 104
e 34 105
e 34 106
e 34 114
e 34 116
e 34 125
e 34 126
e 34 128
e 34 130
e 34 133
e 34 139
e 34 141
e 34 146
e 34 148
e 34 150
e 34 151
e 34 152
e 34 154
e 34 167
e 34 169
e 34 171
e 34 187
e 34 193
e 34 198
e 34 199
e 35 42
e 35 43
e 35 44
e 35 47
e 35 53
e 35 54
e 35 55
e 35 65
e 35 81
e 35 86
e 35 90
e 35 95
e 35 96
e 35 99
e 35 101
e 35 105
e 35 106
e 35 114
e 35 120
e 35 121
e 35 132
e 35 135
e 35 139
e 35 146
e 35 148
e 35 152
e 35 163
e 35 167
e 35 169
e 35 176
e 35 183
e 35 191
e 35 200
e 36 47
e 36 55
e 36 56
e 36 59
e 36 62
e 36 75
e 36 77
e 36 80
e 36 81
e 36 85
e 36 88
e 36 93
e 36 94
e 36 96
e 36 102
e 36 106
e 36 107
e 36 111
e 36 115
e 36 121
e 36 123
e 36 132
e 36 139
e 36 141
e 36 142
e 36 145
e 36 150
e 36 152
e 36 153
e 36 160
e 36 169
e 36 170
e 36 177
e 36 179
e 36 187
e 36 189
e 36 190
e 36 191
e 36 194
e 36 195
e 36 196
e 37 39
e 37 44
e 37 49
e 37 55
e 37 61
e 37 70
e 37 77
e 37 78
e 37 79
e 37 80
e 37 92
e 37 95
e 37 98
e 37 100
e 37 101
e 37 108
e 37 114
e 37 117
e 37 121
e 37 123
e 37 124
e 37 125
e 37 128
e 37 146
e 37 150
e 37 170
e 37 176
e 37 187
e 37 192
e 37 194
e 37 196
e 38 39
e 38 49
e 38 52
e 38 55
e 38 61
e 38 62
e 38 74
e 38 75
e 38 81
e 38 86
e 38 87
e 38 88
e 38 89
e 38 91
e 38 93
e 38 97
e 38 102
e 38 103
e 38 109
e 38 111
e 38 115
e 38 118
e 38 126
e 38 149
e 38 151
e 38 152
e 38 153
e 38 155
e 38 166
e 38 169
e 38 172
e 38 174
e 38 178
e 38 184
e 38 195
e 39 41
e 39 42
e 39 45
e 39 46
e 39 50
e 39 51
e 39 52
e 39 54
e 39 56
e 39 67
e 39 69
e 39 73
e 39 77
e 39 82
e 39 83
e 39 85
e 39 87
e 39 95
e 39 97
e 39 102
e 39 103
e 39 105
e 39 112
e 39 113
e 39 115
e 39 117
e 39 118
e 39 120
e 39 123
e 39 126
e 39 128
e 39 130
e 39 131
e 39 132
e 39 136
e 39 142
e 39 145
e 39 148
e 39 151
e 39 163
e 39 166
e 39 167
e 39 168
e 39 176
e 39 178
e 39 181
e 39 184
e 39 186
e 39 191
e 39 197
e 39 200
e 40 49
e 40 52
e 40 53
e 40 54
e 40 59
e 40 76
e 40 77
e 40 87
e 40 104
e 40 106
e 40 109
e 40 110
e 40 116
e 40 119
e 40 134
e 40 135
e 40 137
e 40 138
e 40 139
e 40 146
e 40 152
e 40 165
e 40 168
e 40 169
e 40 178
e 40 179
e 40 181
e 40 191
e 40 197
e 41 44
e 41 45
e 41 48
e 41 51
e 41 59
e 41 64
e 41 67
e 41 75
e 41 79
e 41 93
e 41 100
e 41 102
e 41 105
e 41 107
e 41 132
e 41 138
e 41 139
e 41 140
e 41 141
e 41 142
e 41 145
e 41 151
e 41 153
e 41 158
e 41 159
e 41 165
e 41 166
e 41 174
e 41 178
e 41 181
e 41 196
e 41 197
e 42 44
e 42 48
e 42 49
e 42 67
e 42 68
e 42 75
e 42 89
e 42 96
e 42 98
e 42 101
e 42 103
e 42 104
e 42 110
e 42 112
e 42 119
e 42 125
e 42 129
e 42 130
e 42 132
e 42 133
e 42 136
e 42 138
e 42 141
e 42 143
e 42 144
e 42 149
e 42 150
e 42 157
e 42 158
e 42 159
e 42 162
e 42 166
e 42 168
e 42 169
e 42 170
e 42 178
e 42 181
e 42 189
e 42 193
e 42 195
e 42 196
e 42 199
e 42 200
e 43 46
e 43 61
e 43 62
e 43 65
e 43 67
e 43 70
e 43 74
e 43 75
e 43 76
e 43 80
e 43 84
e 43 88
e 43 90
e 43 92
e 43 98
e 43 101
e 43 105
e 43 109
e 43 114
e 43 117
e 43 121
e 43 129
e 43 131
e 43 139
e 43 141
e 43 152
e 43 153
e 43 158
e 43 175
e 43 178
e 43 189
e 44 50
e 44 55
e 44 61
e 44 65
e 44 66
e 44 72
e 44 74
e 44 76
e 44 81
e 44 88
e 44 89
e 44 92
e 44 94
e 44 96
e 44 100
e 44 105
e 44 110
e 44 117
e 44 118
e 44 125
e 44 126
e 44 128
e 44 129
e 44 141
e 44 146
e 44 148
e 44 151
e 44 161
e 44 165
e 44 174
e 44 177
e 44 179
e 44 184
e 44 187
e 44 191
e 44 195
e 44 199
e 44 200
e 45 49
e 45 57
e 45 60
e 45 70
e 45 75
e 45 82
e 45 88
e 45 93
e 45 96
e 45 106
e 45 109
e 45 112
e 45 116
e 45 121
e 45 122
e 45 141
e 45 147
e 45 149
e 45 153
e 45 155
e 45 162
e 45 166
e 45 170
e 45 180
e 45 182
e 45 187
e 45 190
e 45 191
e 45 193
e 45 194
e 46 48
e 46 51
e 46 53
e 46 55
e 46 57
e 46 67
e 46 82
e 46 90
e 46 97
e 46 99
e 46 103
e 46 127
e 46 128
e 46 129
e 46 130
e 46 134
e 46 138
e 46 143
e 46 148
e 46 149
e 46 157
e 46 168
e 46 170
e 46 181
e 46 186
e 46 187
e 46 193
e 46 199
e 47 49
e 47 58
e 47 62
e 47 71
e 47 73
e 47 82
e 47 89
e 47 90
e 47 98
e 47 114
e 47 117
e 47 118
e 47 125
e 47 135
e 47 136
e 47 137
e 47 138
e 47 147
e 47 158
e 47 162
e 47 166
e 47 169
e 47 171
e 47 178
e 47 179
e 47 185
e 47 191
e 47 192
e 47 195
e 47 200
e 48 50
e 48 53
e 48 61
e 48 83
e 48 91
e 48 96
e 48 98
e 48 99
e 48 101
e 48 104
e 48 110
e 48 113
e 48 114
e 48 116
e 48 121
e 48 122
e 48 136
e 48 151
e 48 153
e 48 154
e 48 156
e 48 175
e 48 179
e 48 183
e 48 192
e 48 195
e 48 197
e 48 198
e 49 51
e 49 57
e 49 58
e 49 59
e 49 61
e 49 62
e 49 68
e 49 69
e 49 88
e 49 97
e 49 99
e 49 104
e 49 105
e 49 108
e 49 113
e 49 118
e 49 120
e 49 130
e 49 136
e 49 137
e 49 140
e 49 147
e 49 150
e 49 151
e 49 165
e 49 173
e 49 182
e 49 184
e 49 187
e 49 191
e 49 193
e 49 194
e 49 196
e 50 56
e 50 59
e 50 60
e 50 62
e 50 76
e 50 77
e 50 85
e 50 88
e 50 93
e 50 94
e 50 95
e 50 98
e 50 106
e 50 108
e 50 117
e 50 118
e 50 119
e 50 120
e 50 122
e 50 123
e 50 124
e 50 133
e 50 134
e 50 140
e 50 141
e 50 142
e 50 143
e 50 152
e 50 153
e 50 161
e 50 163
e 50 166
e 50 168
e 50 174
e 50 183
e 50 190
e 50 197
e 51 58
e 51 70
e 51 79
e 51 82
e 51 95
e 51 105
e 51 107
e 51 122
e 51 128
e 51 130
e 51 131
e 51 132
e 51 134
e 51 139
e 51 140
e 51 146
e 51 151
e 51 156
e 51 161
e 51 169
e 51 170
e 51 174
e 51 176
e 51 178
e 51 180
e 51 181
e 51 186
e 51 195
e 51 198
e 52 55
e 52 59
e 52 66
e 52 68
e 52 73
e 52 77
e 52 82
e 52 84
e 52 88
e 52 92
e 52 95
e 52 100
e 52 102
e 52 107
e 52 108
e 52 118
e 52 132
e 52 135
e 52 137
e 52 146
e 52 154
e 52 158
e 52 167
e 52 172
e 52 173
e 52 186
e 52 187
e 52 188
e 52 189
e 52 197
e 52 198
e 53 68
e 53 73
e 53 81
e 53 83
e 53 88
e 53 98
e 53 113
e 53 115
e 53 118
e 53 119
e 53 123
e 53 127
e 53 146
e 53 155
e 53 159
e 53 166
e 53 170
e 53 172
e 53 173
e 53 176
e 53 185
e 53 196
e 54 55
e 54 59
e 54 61
e 54 72
e 54 73
e 54 79
e 54 82
e 54 89
e 54 101
e 54 102
e 54 105
e 54 114
e 54 122
e 54 129
e 54 130
e 54 131
e 54 140
e 54 143
e 54 145
e 54 146
e 54 149
e 54 162
e 54 168
e 54 169
e 54 172
e 54 175
e 54 176
e 54 182
e 54 187
e 54 194
e 55 59
e 55 60
e 55 62
e 55 77
e 55 82
e 55 91
e 55 93
e 55 103
e 55 106
e 55 107
e 55 122
e 55 127
e 55 128
e 55 132
e 55 134
e 55 136
e 55 143
e 55 146
e 55 148
e 55 152
e 55 162
e 55 175
e 55 181
e 55 182
e 55 186
e 55 187
e 55 189
e 55 190
e 55 191
e 56 57
e 56 65
e 56 66
e 56 76
e 56 83
e 56 91
e 56 96
e 56 98
e 56 109
e 56 113
e 56 115
e 56 117
e 56 120
e 56 130
e 56 132
e 56 146
e 56 149
e 56 153
e 56 154
e 56 160
e 56 161
e 56 162
e 56 168
e 56 172
e 56 175
e 56 182
e 56 187
e 56 188
e 56 194
e 56 195
e 56 196
e 57 61
e 57 62
e 57 63
e 57 69
e 57 79
e 57 82
e 57 87
e 57 94
e 57 95
e 57 100
e 57 105
e 57 107
e 57 109
e 57 111
e 57 114
e 57 125
e 57 126
e 57 129
e 57 133
e 57 139
e 57 140
e 57 144
e 57 145
e 57 152
e 57 158
e 57 166
e 57 169
e 57 170
e 57 171
e 57 172
e 57 180
e 57 185
e 57 194
e 57 195
e 57 200
e 58 76
e 58 84
e 58 92
e 58 94
e 58 98
e 58 106
e 58 113
e 58 120
e 58 121
e 58 123
e 58 126
e 58 132
e 58 136
e 58 138
e 58 145
e 58 146
e 58 148
e 58 157
e 58 163
e 58 166
e 58 171
e 58 174
e 58 183
e 58 184
e 58 191
e 58 200
e 59 63
e 59 64
e 59 66
e 59 67
e 59 69
e 59 81
e 59 83
e 59 98
e 59 105
e 59 114
e 59 117
e 59 123
e 59 124
e 59 126
e 59 133
e 59 134
e 59 135
e 59 144
e 59 170
e 59 180
e 60 61
e 60 66
e 60 72
e 60 85
e 60 89
e 60 115
e 60 118
e 60 123
e 60 124
e 60 126
e 60 137
e 60 146
e 60 147
e 60 156
e 60 163
e 60 164
e 60 165
e 60 170
e 60 171
e 60 177
e 60 178
e 60 181
e 60 185
e 60 198
e 60 199
e 61 65
e 61 66
e 61 71
e 61 78
e 61 81
e 61 93
e 61 101
e 61 102
e 61 105
e 61 109
e 61 118
e 61 120
e 61 122
e 61 128
e 61 131
e 61 134
e 61 135
e 61 141
e 61 146
e 61 149
e 61 151
e 61 152
e 61 153
e 61 154
e 61 156
e 61 159
e 61 169
e 61 180
e 61 185
e 61 187
e 61 190
e 61 194
e 62 64
e 62 67
e 62 70
e 62 72
e 62 73
e 62 74
e 62 78
e 62 83
e 62 84
e 62 94
e 62 99
e 62 103
e 62 104
e 62 115
e 62 122
e 62 125
e 62 132
e 62 135
e 62 138
e 62 140
e 62 148
e 62 151
e 62 154
e 62 157
e 62 159
e 62 162
e 62 163
e 62 164
e 62 166
e 62 174
e 62 175
e 62 176
e 62 185
e 62 188
e 62 200
e 63 70
e 63 72
e 63 81
e 63 84
e 63 86
e 63 88
e 63 97
e 63 102
e 63 108
e 63 116
e 63 118
e 63 119
e 63 121
e 63 132
e 63 137
e 63 144
e 63 151
e 63 152
e 63 155
e 63 173
e 63 175
e 63 182
e 63 184
e 64 68
e 64 69
e 64 71
e 64 74
e 64 75
e 64 80
e 64 81
e 64 82
e 64 83
e 64 91
e 64 93
e 64 94
e 64 104
e 64 108
e 64 112
e 64 126
e 64 129
e 64 135
e 64 140
e 64 147
e 64 150
e 64 151
e 64 152
e 64 162
e 64 166
e 64 178
e 64 180
e 64 184
e 64 188
e 64 192
e 64 196
e 65 73
e 65 77
e 65 79
e 65 83
e 65 89
e 65 91
e 65 105
e 65 112
e 65 117
e 65 122
e 65 123
e 65 125
e 65 131
e 65 136
e 65 139
e 65 145
e 65 152
e 65 154
e 65 157
e 65 158
e 65 163
e 65 186
e 65 188
e 65 191
e 65 200
e 66 69
e 66 76
e 66 81
e 66 84
e 66 86
e 66 87
e 66 89
e 66 96
e 66 97
e 66 100
e 66 104
e 66 107
e 66 109
e 66 117
e 66 118
e 66 120
e 66 122
e 66 124
e 66 130
e 66 148
e 66 154
e 66 165
e 66 168
e 66 169
e 66 171
e 66 172
e 66 173
e 66 185
e 66 186
e 66 189
e 66 190
e 66 194
e 67 76
e 67 78
e 67 82
e 67 83
e 67 85
e 67 89
e 67 92
e 67 93
e 67 94
e 67 100
e 67 101
e 67 105
e 67 114
e 67 116
e 67 119
e 67 121
e 67 122
e 67 124
e 67 126
e 67 127
e 67 141
e 67 147
e 67 148
e 67 152
e 67 153
e 67 171
e 67 174
e 67 190
e 68 73
e 68 77
e 68 84
e 68 85
e 68 86
e 68 93
e 68 94
e 68 96
e 68 99
e 68 105
e 68 108
e 68 109
e 68 120
e 68 122
e 68 123
e 68 126
e 68 128
e 68 131
e 68 143
e 68 144
e 68 152
e 68 159
e 68 162
e 68 165
e 68 174
e 68 175
e 68 178
e 68 198
e 69 70
e 69 78
e 69 79
e 69 81
e 69 85
e 69 86
e 69 87
e 69 92
e 69 94
e 69 96
e 69 103
e 69 105
e 69 123
e 69 133
e 69 136
e 69 139
e 69 142
e 69 143
e 69 165
e 69 167
e 69 173
e 69 178
e 69 179
e 69 194
e 69 195
e 69 197
e 69 198
e 70 74
e 70 86
e 70 94
e 70 95
e 70 100
e 70 106
e 70 112
e 70 117
e 70 121
e 70 123
e 70 124
e 70 127
e 70 129
e 70 133
e 70 134
e 70 146
e 70 147
e 70 149
e 70 152
e 70 153
e 70 158
e 70 171
e 70 173
e 70 176
e 70 179
e 70 191
e 71 76
e 71 79
e 71 88
e 71 90
e 71 98
e 71 103
e 71 105
e 71 110
e 71 118
e 71 122
e 71 124
e 71 125
e 71 132
e 71 143
e 71 145
e 71 153
e 71 155
e 71 161
e 71 162
e 71 165
e 71 173
e 71 176
e 71 178
e 71 181
e 71 185
e 71 187
e 71 193
e 71 194
e 71 199
e 71 200
e 72 77
e 72 88
e 72 96
e 72 100
e 72 101
e 72 105
e 72 113
e 72 116
e 72 124
e 72 126
e 72 136
e 72 139
e 72 149
e 72 153
e 72 158
e 72 159
e 72 168
e 72 173
e 72 175
e 72 178
e 72 181
e 72 193
e 72 197
e 72 200
e 73 77
e 73 83
e 73 88
e 73 92
e 73 94
e 73 95
e 73 101
e 73 105
e 73 108
e 73 110
e 73 112
e 73 113
e 73 117
e 73 129
e 73 141
e 73 142
e 73 147
e 73 157
e 73 166
e 73 169
e 73 178
e 73 181
e 73 195
e 73 199
e 74 77
e 74 90
e 74 91
e 74 97
e 74 102
e 74 103
e 74 107
e 74 112
e 74 115
e 74 116
e 74 124
e 74 127
e 74 128
e 74 130
e 74 138
e 74 140
e 74 158
e 74 168
e 74 171
e 74 186
e 75 77
e 75 79
e 75 84
e 75 85
e 75 87
e 75 93
e 75 94
e 75 105
e 75 117
e 75 120
e 75 121
e 75 130
e 75 137
e 75 140
e 75 141
e 75 143
e 75 152
e 75 155
e 75 158
e 75 161
e 75 162
e 75 185
e 75 189
e 75 192
e 75 195
e 75 196
e 75 199
e 76 85
e 76 91
e 76 98
e 76 100
e 76 102
e 76 110
e 76 113
e 76 114
e 76 124
e 76 129
e 76 132
e 76 135
e 76 139
e 76 140
e 76 142
e 76 144
e 76 145
e 76 147
e 76 150
e 76 154
e 76 156
e 76 159
e 76 161
e 76 164
e 76 167
e 76 171
e 76 177
e 76 180
e 76 181
e 76 182
e 76 187
e 76 191
e 76 193
e 76 199
e 77 85
e 77 100
e 77 110
e 77 119
e 77 126
e 77 128
e 77 134
e 77 137
e 77 140
e 77 180
e 77 184
e 77 187
e 77 190
e 77 192
e 78 82
e 78 85
e 78 87
e 78 94
e 78 102
e 78 109
e 78 113
e 78 115
e 78 117
e 78 128
e 78 131
e 78 132
e 78 140
e 78 146
e 78 152
e 78 156
e 78 159
e 78 164
e 78 165
e 78 168
e 78 174
e 78 175
e 78 176
e 78 177
e 78 179
e 78 180
e 78 181
e 78 184
e 78 185
e 78 186
e 78 199
e 79 82
e 79 92
e 79 96
e 79 101
e 79 103
e 79 104
e 79 105
e 79 118
e 79 120
e 79 127
e 79 131
e 79 138
e 79 139
e 79 142
e 79 158
e 79 162
e 79 164
e 79 165
e 79 169
e 79 171
e 79 172
e 79 177
e 79 181
e 79 185
e 79 188
e 79 194
e 79 199
e 79 200
e 80 83
e 80 95
e 80 105
e 80 106
e 80 111
e 80 112
e 80 122
e 80 126
e 80 130
e 80 131
e 80 132
e 80 138
e 80 139
e 80 140
e 80 143
e 80 159
e 80 161
e 80 166
e 80 168
e 80 172
e 80 175
e 80 176
e 80 178
e 80 180
e 80 181
e 80 193
e 80 199
e 81 88
e 81 97
e 81 99
e 81 100
e 81 107
e 81 109
e 81 110
e 81 114
e 81 115
e 81 117
e 81 118
e 81 121
e 81 123
e 81 128
e 81 136
e 81 137
e 81 146
e 81 147
e 81 148
e 81 151
e 81 155
e 81 157
e 81 158
e 81 159
e 81 160
e 81 167
e 81 168
e 81 179
e 81 197
e 81 200
e 82 84
e 82 86
e 82 94
e 82 95
e 82 96
e 82 103
e 82 104
e 82 105
e 82 108
e 82 110
e 82 117
e 82 119
e 82 128
e 82 129
e 82 135
e 82 138
e 82 139
e 82 148
e 82 156
e 82 165
e 82 166
e 82 170
e 82 174
e 82 176
e 82 186
e 82 193
e 82 195
e 82 196
e 82 198
e 83 91
e 83 92
e 83 94
e 83 95
e 83 103
e 83 108
e 83 109
e 83 110
e 83 112
e 83 113
e 83 120
e 83 122
e 83 127
e 83 141
e 83 145
e 83 146
e 83 150
e 83 152
e 83 154
e 83 158
e 83 161
e 83 165
e 83 167
e 83 180
e 83 186
e 83 196
e 83 197
e 83 198
e 84 85
e 84 94
e 84 100
e 84 110
e 84 112
e 84 116
e 84 122
e 84 129
e 84 134
e 84 136
e 84 140
e 84 144
e 84 145
e 84 147
e 84 148
e 84 153
e 84 155
e 84 161
e 84 166
e 84 172
e 84 176
e 84 179
e 84 180
e 84 181
e 84 184
e 84 188
e 84 195
e 85 88
e 85 94
e 85 99
e 85 101
e 85 105
e 85 107
e 85 114
e 85 118
e 85 120
e 85 126
e 85 140
e 85 141
e 85 144
e 85 150
e 85 154
e 85 157
e 85 169
e 86 103
e 86 106
e 86 107
e 86 111
e 86 113
e 86 115
e 86 116
e 86 120
e 86 121
e 86 122
e 86 131
e 86 138
e 86 141
e 86 142
e 86 152
e 86 153
e 86 157
e 86 159
e 86 166
e 86 179
e 86 180
e 86 186
e 86 187
e 86 188
e 86 191
e 86 198
e 86 200
e 87 91
e 87 92
e 87 103
e 87 104
e 87 112
e 87 114
e 87 116
e 87 118
e 87 131
e 87 134
e 87 140
e 87 142
e 87 143
e 87 145
e 87 146
e 87 154
e 87 155
e 87 156
e 87 182
e 87 187
e 87 194
e 87 196
e 87 197
e 87 199
e 88 93
e 88 95
e 88 98
e 88 100
e 88 103
e 88 115
e 88 117
e 88 119
e 88 121
e 88 136
e 88 142
e 88 148
e 88 151
e 88 155
e 88 169
e 88 178
e 88 189
e 88 192
e 88 198
e 88 199
e 89 94
e 89 102
e 89 105
e 89 107
e 89 109
e 89 112
e 89 118
e 89 121
e 89 128
e 89 130
e 89 132
e 89 135
e 89 138
e 89 144
e 89 149
e 89 151
e 89 159
e 89 175
e 89 176
e 89 177
e 89 178
e 89 180
e 89 181
e 89 183
e 89 192
e 89 198
e 90 99
e 90 101
e 90 109
e 90 113
e 90 117
e 90 122
e 90 128
e 90 129
e 90 143
e 90 144
e 90 146
e 90 164
e 90 166
e 90 167
e 90 168
e 90 172
e 90 174
e 90 175
e 90 178
e 90 181
e 90 188
e 90 200
e 91 92
e 91 99
e 91 101
e 91 108
e 91 113
e 91 114
e 91 117
e 91 119
e 91 125
e 91 127
e 91 141
e 91 144
e 91 146
e 91 155
e 91 157
e 91 170
e 91 171
e 91 175
e 91 177
e 91 178
e 91 184
e 91 187
e 91 193
e 91 196
e 91 197
e 92 97
e 92 102
e 92 103
e 92 104
e 92 109
e 92 113
e 92 115
e 92 122
e 92 126
e 92 130
e 92 134
e 92 136
e 92 145
e 92 148
e 92 149
e 92 151
e 92 154
e 92 161
e 92 165
e 92 168
e 92 174
e 92 176
e 92 177
e 92 183
e 92 185
e 92 200
e 93 96
e 93 98
e 93 103
e 93 108
e 93 111
e 93 118
e 93 136
e 93 141
e 93 145
e 93 154
e 93 160
e 93 163
e 93 164
e 93 165
e 93 166
e 93 167
e 93 177
e 93 184
e 94 97
e 94 98
e 94 99
e 94 116
e 94 125
e 94 130
e 94 132
e 94 142
e 94 148
e 94 149
e 94 153
e 94 162
e 94 164
e 94 167
e 94 184
e 94 185
e 94 188
e 94 195
e 94 198
e 95 105
e 95 109
e 95 110
e 95 113
e 95 115
e 95 118
e 95 124
e 95 126
e 95 128
e 95 137
e 95 145
e 95 155
e 95 156
e 95 158
e 95 161
e 95 167
e 95 173
e 95 174
e 95 180
e 95 187
e 95 190
e 95 192
e 95 195
e 95 200
e 96 103
e 96 121
e 96 129
e 96 139
e 96 144
e 96 149
e 96 151
e 96 153
e 96 156
e 96 161
e 96 165
e 96 166
e 96 180
e 96 186
e 96 188
e 96 192
e 96 197
e 96 200
e 97 103
e 97 104
e 97 108
e 97 113
e 97 114
e 97 117
e 97 118
e 97 119
e 97 125
e 97 131
e 97 133
e 97 137
e 97 152
e 97 162
e 97 163
e 97 173
e 97 183
e 97 185
e 97 187
e 97 188
e 97 189
e 97 195
e 98 100
e 98 109
e 98 111
e 98 118
e 98 121
e 98 128
e 98 129
e 98 135
e 98 139
e 98 145
e 98 147
e 98 157
e 98 158
e 98 161
e 98 162
e 98 182
e 98 189
e 99 106
e 99 114
e 99 118
e 99 126
e 99 129
e 99 133
e 99 138
e 99 145
e 99 150
e 99 153
e 99 155
e 99 157
e 99 162
e 99 168
e 99 169
e 99 177
e 99 183
e 99 186
e 99 188
e 100 106
e 100 107
e 100 114
e 100 115
e 100 123
e 100 126
e 100 133
e 100 135
e 100 141
e 100 152
e 100 155
e 100 184
e 100 186
e 100 187
e 100 188
e 101 113
e 101 119
e 101 127
e 101 132
e 101 133
e 101 137
e 101 138
e 101 140
e 101 141
e 101 152
e 101 153
e 101 154
e 101 158
e 101 159
e 101 174
e 101 175
e 101 179
e 101 180
e 101 184
e 101 188
e 101 190
e 101 191
e 101 195
e 101 198
e 102 105
e 102 107
e 102 110
e 102 113
e 102 118
e 102 119
e 102 120
e 102 122
e 102 125
e 102 140
e 102 145
e 102 153
e 102 158
e 102 164
e 102 166
e 102 174
e 102 176
e 102 177
e 102 187
e 102 189
e 102 199
e 103 110
e 103 112
e 103 125
e 103 126
e 103 128
e 103 135
e 103 138
e 103 140
e 103 144
e 103 148
e 103 152
e 103 175
e 103 180
e 103 182
e 103 184
e 103 189
e 103 195
e 104 105
e 104 109
e 104 118
e 104 119
e 104 120
e 104 121
e 104 126
e 104 130
e 104 133
e 104 135
e 104 137
e 104 139
e 104 141
e 104 150
e 104 156
e 104 158
e 104 159
e 104 161
e 104 174
e 104 178
e 104 186
e 104 190
e 104 193
e 104 194
e 104 196
e 104 199
e 105 111
e 105 112
e 105 120
e 105 125
e 105 127
e 105 130
e 105 133
e 105 137
e 105 145
e 105 147
e 105 149
e 105 150
e 105 154
e 105 155
e 105 163
e 105 166
e 105 174
e 105 175
e 105 185
e 105 186
e 105 194
e 105 196
e 105 198
e 106 116
e 106 120
e 106 123
e 106 134
e 106 139
e 106 141
e 106 142
e 106 151
e 106 154
e 106 160
e 106 165
e 106 166
e 106 172
e 106 175
e 106 176
e 106 177
e 106 178
e 106 184
e 106 190
e 106 194
e 106 197
e 106 199
e 106 200
e 107 109
e 107 111
e 107 115
e 107 117
e 107 123
e 107 128
e 107 136
e 107 139
e 107 143
e 107 145
e 107 146
e 107 147
e 107 148
e 107 163
e 107 167
e 107 172
e 107 173
e 107 177
e 107 179
e 107 183
e 107 185
e 107 186
e 107 187
e 107 194
e 107 196
e 107 197
e 108 110
e 108 114
e 108 118
e 108 120
e 108 121
e 108 125
e 108 132
e 108 135
e 108 136
e 108 139
e 108 140
e 108 147
e 108 148
e 108 152
e 108 158
e 108 160
e 108 161
e 108 163
e 108 164
e 108 166
e 108 168
e 108 171
e 108 172
e 108 174
e 108 177
e 108 179
e 108 180
e 108 181
e 108 183
e 108 192
e 108 200
e 109 112
e 109 133
e 109 143
e 109 154
e 109 158
e 109 159
e 109 160
e 109 161
e 109 169
e 109 170
e 109 172
e 109 176
e 109 183
e 109 185
e 109 189
e 109 190
e 109 191
e 109 192
e 109 194
e 109 197
e 110 111
e 110 114
e 110 118
e 110 120
e 110 125
e 110 126
e 110 131
e 110 134
e 110 135
e 110 136
e 110 137
e 110 139
e 110 143
e 110 148
e 110 154
e 110 162
e 110 168
e 110 169
e 110 172
e 110 175
e 110 177
e 110 189
e 110 191
e 110 196
e 110 200
e 111 114
e 111 117
e 111 120
e 111 124
e 111 137
e 111 138
e 111 140
e 111 142
e 111 147
e 111 151
e 111 154
e 111 161
e 111 163
e 111 168
e 111 172
e 111 182
e 111 184
e 111 187
e 111 190
e 111 191
e 111 194
e 111 195
e 111 197
e 111 199
e 112 114
e 112 124
e 112 125
e 112 126
e 112 143
e 112 158
e 112 159
e 112 164
e 112 168
e 112 171
e 112 178
e 112 181
e 112 182
e 112 185
e 112 189
e 112 193
e 112 194
e 112 197
e 113 116
e 113 118
e 113 145
e 113 152
e 113 155
e 113 158
e 113 172
e 113 178
e 113 190
e 114 116
e 114 120
e 114 122
e 114 123
e 114 124
e 114 126
e 114 135
e 114 139
e 114 142
e 114 143
e 114 144
e 114 145
e 114 154
e 114 155
e 114 158
e 114 170
e 114 173
e 114 174
e 114 187
e 114 192
e 114 194
e 114 198
e 115 123
e 115 126
e 115 133
e 115 140
e 115 145
e 115 154
e 115 157
e 115 161
e 115 163
e 115 168
e 115 172
e 115 186
e 115 190
e 115 193
e 115 196
e 115 197
e 116 122
e 116 132
e 116 134
e 116 137
e 116 145
e 116 150
e 116 160
e 116 163
e 116 164
e 116 171
e 116 176
e 116 179
e 116 185
e 116 187
e 116 193
e 116 197
e 117 122
e 117 126
e 117 127
e 117 128
e 117 130
e 117 136
e 117 143
e 117 149
e 117 150
e 117 154
e 117 157
e 117 158
e 117 160
e 117 167
e 117 168
e 117 176
e 117 177
e 117 190
e 117 193
e 117 194
e 117 196
e 118 119
e 118 120
e 118 121
e 118 123
e 118 125
e 118 127
e 118 134
e 118 167
e 118 174
e 118 194
e 118 197
e 119 120
e 119 124
e 119 130
e 119 135
e 119 140
e 119 141
e 119 148
e 119 157
e 119 163
e 119 170
e 119 173
e 119 175
e 119 178
e 119 180
e 119 186
e 119 187
e 119 196
e 119 200
e 120 121
e 120 129
e 120 136
e 120 138
e 120 140
e 120 141
e 120 142
e 120 146
e 120 161
e 120 177
e 120 193
e 121 122
e 121 123
e 121 126
e 121 131
e 121 135
e 121 137
e 121 141
e 121 146
e 121 151
e 121 157
e 121 166
e 121 168
e 121 180
e 121 192
e 121 194
e 121 195
e 121 198
e 121 200
e 122 123
e 122 126
e 122 136
e 122 140
e 122 142
e 122 143
e 122 146
e 122 147
e 122 154
e 122 159
e 122 163
e 122 167
e 122 170
e 122 172
e 122 176
e 122 184
e 122 185
e 122 192
e 122 196
e 123 125
e 123 126
e 123 128
e 123 130
e 123 133
e 123 146
e 123 153
e 123 157
e 123 158
e 123 164
e 123 168
e 123 169
e 123 176
e 123 178
e 123 179
e 123 180
e 123 183
e 123 187
e 123 190
e 123 193
e 124 125
e 124 128
e 124 139
e 124 144
e 124 154
e 124 162
e 124 174
e 124 175
e 124 183
e 124 192
e 125 128
e 125 131
e 125 133
e 125 137
e 125 148
e 125 156
e 125 158
e 125 159
e 125 168
e 125 170
e 125 171
e 125 174
e 125 181
e 125 188
e 125 191
e 125 193
e 125 195
e 126 133
e 126 138
e 126 139
e 126 146
e 126 149
e 126 150
e 126 156
e 126 158
e 126 163
e 126 164
e 126 168
e 126 171
e 126 174
e 126 175
e 126 176
e 126 178
e 126 182
e 127 129
e 127 132
e 127 133
e 127 136
e 127 138
e 127 152
e 127 153
e 127 156
e 127 158
e 127 164
e 127 169
e 127 170
e 127 173
e 127 174
e 127 181
e 127 183
e 127 186
e 127 192
e 127 193
e 127 195
e 127 196
e 128 129
e 128 133
e 128 144
e 128 146
e 128 150
e 128 153
e 128 161
e 128 168
e 128 189
e 128 199
e 129 130
e 129 137
e 129 143
e 129 151
e 129 171
e 129 174
e 129 179
e 129 182
e 129 183
e 129 187
e 129 188
e 129 192
e 129 193
e 129 198
e 129 199
e 130 142
e 130 145
e 130 151
e 130 158
e 130 167
e 130 176
e 130 184
e 130 190
e 131 132
e 131 144
e 131 149
e 131 157
e 131 167
e 131 171
e 131 178
e 131 182
e 131 188
e 131 198
e 132 139
e 132 140
e 132 158
e 132 161
e 132 162
e 132 171
e 132 192
e 132 197
e 132 199
e 133 135
e 133 138
e 133 150
e 133 151
e 133 152
e 133 161
e 133 162
e 133 170
e 133 172
e 133 175
e 133 188
e 133 192
e 133 194
e 133 195
e 134 142
e 134 145
e 134 152
e 134 165
e 134 167
e 134 170
e 134 172
e 134 174
e 134 175
e 134 178
e 134 181
e 134 188
e 134 190
e 134 191
e 134 195
e 134 196
e 134 197
e 134 199
e 135 138
e 135 140
e 135 142
e 135 143
e 135 145
e 135 148
e 135 162
e 135 170
e 135 171
e 135 173
e 135 177
e 135 182
e 135 189
e 135 194
e 135 200
e 136 145
e 136 157
e 136 163
e 136 165
e 136 172
e 136 173
e 136 181
e 136 183
e 136 189
e 136 193
e 136 196
e 137 141
e 137 144
e 137 145
e 137 158
e 137 164
e 137 175
e 137 180
e 137 184
e 137 185
e 137 194
e 138 141
e 138 146
e 138 171
e 138 176
e 138 179
e 138 180
e 138 188
e 138 191
e 138 198
e 139 140
e 139 143
e 139 158
e 139 176
e 139 178
e 139 192
e 139 197
e 140 143
e 140 149
e 140 150
e 140 152
e 140 156
e 140 157
e 140 159
e 140 161
e 140 164
e 140 171
e 140 172
e 140 175
e 140 178
e 140 179
e 140 188
e 140 192
e 141 146
e 141 154
e 141 155
e 141 157
e 141 168
e 141 176
e 141 179
e 141 183
e 141 184
e 141 186
e 141 191
e 141 196
e 141 197
e 142 143
e 142 146
e 142 150
e 142 151
e 142 155
e 142 164
e 142 167
e 142 178
e 142 189
e 142 192
e 142 199
e 143 151
e 143 154
e 143 156
e 143 157
e 143 158
e 143 160
e 143 163
e 143 169
e 143 175
e 143 177
e 143 185
e 143 194
e 143 195
e 143 199
e 144 156
e 144 159
e 144 163
e 144 165
e 144 166
e 144 168
e 144 186
e 144 200
e 145 151
e 145 154
e 145 158
e 145 159
e 145 164
e 145 166
e 145 172
e 145 175
e 145 186
e 145 191
e 145 192
e 145 199
e 146 152
e 146 154
e 146 160
e 146 162
e 146 164
e 146 169
e 146 171
e 146 173
e 146 175
e 146 190
e 146 197
e 147 157
e 147 159
e 147 165
e 147 169
e 147 171
e 147 172
e 147 180
e 147 181
e 147 185
e 147 187
e 148 149
e 148 151
e 148 152
e 148 153
e 148 154
e 148 159
e 148 162
e 148 168
e 148 174
e 148 184
e 148 187
e 148 188
e 148 193
e 148 196
e 148 200
e 149 153
e 149 162
e 149 171
e 149 172
e 149 176
e 149 185
e 149 186
e 149 196
e 149 197
e 149 200
e 150 169
e 150 187
e 150 194
e 150 198
e 151 165
e 151 167
e 151 168
e 151 169
e 151 171
e 151 174
e 151 179
e 151 180
e 151 182
e 151 183
e 151 188
e 151 193
e 152 159
e 152 161
e 152 163
e 152 166
e 152 168
e 152 182
e 152 195
e 152 199
e 153 158
e 153 163
e 153 175
e 153 179
e 153 186
e 153 189
e 153 191
e 153 199
e 154 158
e 154 166
e 154 172
e 154 173
e 154 182
e 154 186
e 154 189
e 154 199
e 155 160
e 155 164
e 155 177
e 155 186
e 155 191
e 155 196
e 155 197
e 156 166
e 156 167
e 156 174
e 156 182
e 156 192
e 156 194
e 156 198
e 157 158
e 157 168
e 157 170
e 157 171
e 157 172
e 157 178
e 157 181
e 157 184
e 157 185
e 157 186
e 157 188
e 157 191
e 158 160
e 158 175
e 158 179
e 158 182
e 158 183
e 158 185
e 158 190
e 159 162
e 159 163
e 159 167
e 159 169
e 159 175
e 159 176
e 159 179
e 159 184
e 159 187
e 159 188
e 159 191
e 159 192
e 159 195
e 159 199
e 160 170
e 160 172
e 160 174
e 160 175
e 160 179
e 160 186
e 160 187
e 160 189
e 160 194
e 160 200
e 161 166
e 161 173
e 161 174
e 161 177
e 161 181
e 161 189
e 161 195
e 161 200
e 162 164
e 162 169
e 162 172
e 162 176
e 162 181
e 162 182
e 162 184
e 162 189
e 163 169
e 163 171
e 163 186
e 163 187
e 163 191
e 163 197
e 163 199
e 164 166
e 164 187
e 164 188
e 164 189
e 164 196
e 164 197
e 165 168
e 165 182
e 165 191
e 165 193
e 166 172
e 166 173
e 166 176
e 166 183
e 166 193
e 166 196
e 167 168
e 167 178
e 167 180
e 167 181
e 167 199
e 168 169
e 168 171
e 168 177
e 168 188
e 168 192
e 168 196
e 168 198
e 168 200
e 169 170
e 169 196
e 169 199
e 170 174
e 170 181
e 170 182
e 170 183
e 170 186
e 170 195
e 170 196
e 170 200
e 171 175
e 171 183
e 171 192
e 172 176
e 172 178
e 172 181
e 172 186
e 172 195
e 173 183
e 173 187
e 173 191
e 173 198
e 174 179
e 174 186
e 174 195
e 175 176
e 175 177
e 175 180
e 175 182
e 175 187
e 175 193
e 176 184
e 176 186
e 176 196
e 176 199
e 177 178
e 177 182
e 177 189
e 177 192
e 177 198
e 177 199
e 178 179
e 178 182
e 178 185
e 178 190
e 178 195
e 178 198
e 178 200
e 179 183
e 179 195
e 180 186
e 180 187
e 180 195
e 181 184
e 181 188
e 181 197
e 181 199
e 182 184
e 182 185
e 182 197
e 182 198
e 183 185
e 183 199
e 184 185
e 184 187
e 184 197
e 185 192
e 186 193
e 186 200
e 187 191
e 187 193
e 187 195
e 187 196
e 187 200
e 188 194
e 188 199
e 189 190
e 189 191
e 189 192
e 190 196
e 190 199
e 191 192
e 191 193
e 191 199
e 193 194
e 193 196
e 193 197
e 193 200
e 194 198
e 194 199
e 195 196
e 195 199
e 196 198
e 197 199
e 198 200
